c ind 1 102 103 104 105 106 107 108 109 110 111 112 113 114 115 116 117 0
p cnf 251 928
2 -4 0
3 -4 0
-2 -3 4 0
2 -5 0
-3 -5 0
-2 3 5 0
6 -8 0
7 -8 0
-6 -7 8 0
6 -9 0
-7 -9 0
-6 7 9 0
10 -12 0
11 -12 0
-10 -11 12 0
10 -13 0
-11 -13 0
-10 11 13 0
14 -16 0
15 -16 0
-14 -15 16 0
14 -17 0
-15 -17 0
-14 15 17 0
18 -20 0
19 -20 0
-18 -19 20 0
18 -21 0
-19 -21 0
-18 19 21 0
-22 -24 0
23 -24 0
22 -23 24 0
-22 -25 0
-23 -25 0
22 23 25 0
-22 -27 0
-23 -27 0
26 -27 0
22 23 -26 27 0
-22 -28 0
-23 -28 0
-26 -28 0
22 23 26 28 0
-22 -30 0
-23 -30 0
-26 -30 0
29 -30 0
22 23 26 -29 30 0
-22 -31 0
-23 -31 0
-26 -31 0
-29 -31 0
22 23 26 29 31 0
-22 -33 0
-23 -33 0
-26 -33 0
-29 -33 0
32 -33 0
22 23 26 29 -32 33 0
-22 -34 0
-23 -34 0
-26 -34 0
-29 -34 0
-32 -34 0
22 23 26 29 32 34 0
-22 -36 0
-23 -36 0
-26 -36 0
-29 -36 0
-32 -36 0
35 -36 0
22 23 26 29 32 -35 36 0
-22 -38 0
-23 -38 0
-26 -38 0
-29 -38 0
-32 -38 0
35 -38 0
37 -38 0
22 23 26 29 32 -35 -37 38 0
-22 -39 0
-23 -39 0
-26 -39 0
-29 -39 0
-32 -39 0
35 -39 0
-37 -39 0
22 23 26 29 32 -35 37 39 0
-22 -41 0
-23 -41 0
-26 -41 0
-29 -41 0
-32 -41 0
35 -41 0
-37 -41 0
40 -41 0
22 23 26 29 32 -35 37 -40 41 0
-22 -43 0
-23 -43 0
-26 -43 0
-29 -43 0
-32 -43 0
35 -43 0
-37 -43 0
40 -43 0
42 -43 0
22 23 26 29 32 -35 37 -40 -42 43 0
-22 -44 0
-23 -44 0
-26 -44 0
-29 -44 0
-32 -44 0
35 -44 0
-37 -44 0
40 -44 0
-42 -44 0
22 23 26 29 32 -35 37 -40 42 44 0
-22 -46 0
-23 -46 0
-26 -46 0
-29 -46 0
-32 -46 0
35 -46 0
-37 -46 0
40 -46 0
-42 -46 0
45 -46 0
22 23 26 29 32 -35 37 -40 42 -45 46 0
-22 -48 0
-23 -48 0
-26 -48 0
-29 -48 0
-32 -48 0
35 -48 0
-37 -48 0
40 -48 0
-42 -48 0
45 -48 0
47 -48 0
22 23 26 29 32 -35 37 -40 42 -45 -47 48 0
-22 -49 0
-23 -49 0
-26 -49 0
-29 -49 0
-32 -49 0
35 -49 0
-37 -49 0
40 -49 0
-42 -49 0
45 -49 0
-47 -49 0
22 23 26 29 32 -35 37 -40 42 -45 47 49 0
-32 -50 0
-37 -50 0
-42 -50 0
-23 -50 0
-26 -50 0
-29 -50 0
-22 -50 0
35 -50 0
40 -50 0
45 -50 0
22 23 26 29 32 -35 37 -40 42 -45 50 0
-22 -51 0
-23 -51 0
-26 -51 0
-29 -51 0
-32 -51 0
35 -51 0
-37 -51 0
40 -51 0
-42 -51 0
-45 -51 0
22 23 26 29 32 -35 37 -40 42 45 51 0
-32 -52 0
-37 -52 0
-23 -52 0
-26 -52 0
-29 -52 0
-22 -52 0
35 -52 0
40 -52 0
22 23 26 29 32 -35 37 -40 52 0
-22 -53 0
-23 -53 0
-26 -53 0
-29 -53 0
-32 -53 0
35 -53 0
-37 -53 0
-40 -53 0
22 23 26 29 32 -35 37 40 53 0
-22 -55 0
-23 -55 0
-26 -55 0
-29 -55 0
-32 -55 0
35 -55 0
-37 -55 0
-40 -55 0
54 -55 0
22 23 26 29 32 -35 37 40 -54 55 0
-22 -57 0
-23 -57 0
-26 -57 0
-29 -57 0
-32 -57 0
35 -57 0
-37 -57 0
-40 -57 0
54 -57 0
56 -57 0
22 23 26 29 32 -35 37 40 -54 -56 57 0
-22 -58 0
-23 -58 0
-26 -58 0
-29 -58 0
-32 -58 0
35 -58 0
-37 -58 0
-40 -58 0
54 -58 0
-56 -58 0
22 23 26 29 32 -35 37 40 -54 56 58 0
-22 -60 0
-23 -60 0
-26 -60 0
-29 -60 0
-32 -60 0
35 -60 0
-37 -60 0
-40 -60 0
54 -60 0
-56 -60 0
59 -60 0
22 23 26 29 32 -35 37 40 -54 56 -59 60 0
-22 -62 0
-23 -62 0
-26 -62 0
-29 -62 0
-32 -62 0
35 -62 0
-37 -62 0
-40 -62 0
54 -62 0
-56 -62 0
59 -62 0
61 -62 0
22 23 26 29 32 -35 37 40 -54 56 -59 -61 62 0
-22 -63 0
-23 -63 0
-26 -63 0
-29 -63 0
-32 -63 0
35 -63 0
-37 -63 0
-40 -63 0
54 -63 0
-56 -63 0
59 -63 0
-61 -63 0
22 23 26 29 32 -35 37 40 -54 56 -59 61 63 0
-32 -64 0
-37 -64 0
-40 -64 0
-56 -64 0
-23 -64 0
-26 -64 0
-29 -64 0
-22 -64 0
35 -64 0
54 -64 0
59 -64 0
22 23 26 29 32 -35 37 40 -54 56 -59 64 0
-22 -65 0
-23 -65 0
-26 -65 0
-29 -65 0
-32 -65 0
35 -65 0
-37 -65 0
-40 -65 0
54 -65 0
-56 -65 0
-59 -65 0
22 23 26 29 32 -35 37 40 -54 56 59 65 0
-32 -66 0
-37 -66 0
-40 -66 0
-23 -66 0
-26 -66 0
-29 -66 0
-22 -66 0
35 -66 0
54 -66 0
22 23 26 29 32 -35 37 40 -54 66 0
-22 -67 0
-23 -67 0
-26 -67 0
-29 -67 0
-32 -67 0
35 -67 0
-37 -67 0
-40 -67 0
-54 -67 0
22 23 26 29 32 -35 37 40 54 67 0
-32 -68 0
-23 -68 0
-26 -68 0
-29 -68 0
-22 -68 0
35 -68 0
22 23 26 29 32 -35 68 0
-22 -69 0
-23 -69 0
-26 -69 0
-29 -69 0
-32 -69 0
-35 -69 0
22 23 26 29 32 35 69 0
-22 -71 0
-23 -71 0
-26 -71 0
-29 -71 0
-32 -71 0
-35 -71 0
70 -71 0
22 23 26 29 32 35 -70 71 0
-22 -73 0
-23 -73 0
-26 -73 0
-29 -73 0
-32 -73 0
-35 -73 0
70 -73 0
72 -73 0
22 23 26 29 32 35 -70 -72 73 0
-22 -74 0
-23 -74 0
-26 -74 0
-29 -74 0
-32 -74 0
-35 -74 0
70 -74 0
-72 -74 0
22 23 26 29 32 35 -70 72 74 0
-22 -76 0
-23 -76 0
-26 -76 0
-29 -76 0
-32 -76 0
-35 -76 0
70 -76 0
-72 -76 0
75 -76 0
22 23 26 29 32 35 -70 72 -75 76 0
-22 -77 0
-23 -77 0
-26 -77 0
-29 -77 0
-32 -77 0
-35 -77 0
70 -77 0
-72 -77 0
-75 -77 0
22 23 26 29 32 35 -70 72 75 77 0
-22 -79 0
-23 -79 0
-26 -79 0
-29 -79 0
-32 -79 0
-35 -79 0
70 -79 0
-72 -79 0
-75 -79 0
78 -79 0
22 23 26 29 32 35 -70 72 75 -78 79 0
-22 -81 0
-23 -81 0
-26 -81 0
-29 -81 0
-32 -81 0
-35 -81 0
70 -81 0
-72 -81 0
-75 -81 0
78 -81 0
80 -81 0
22 23 26 29 32 35 -70 72 75 -78 -80 81 0
-22 -82 0
-23 -82 0
-26 -82 0
-29 -82 0
-32 -82 0
-35 -82 0
70 -82 0
-72 -82 0
-75 -82 0
78 -82 0
-80 -82 0
22 23 26 29 32 35 -70 72 75 -78 80 82 0
-32 -83 0
-35 -83 0
-72 -83 0
-75 -83 0
-23 -83 0
-26 -83 0
-29 -83 0
-22 -83 0
70 -83 0
78 -83 0
22 23 26 29 32 35 -70 72 75 -78 83 0
-22 -84 0
-23 -84 0
-26 -84 0
-29 -84 0
-32 -84 0
-35 -84 0
70 -84 0
-72 -84 0
-75 -84 0
-78 -84 0
22 23 26 29 32 35 -70 72 75 78 84 0
-22 -86 0
-23 -86 0
-26 -86 0
-29 -86 0
-32 -86 0
-35 -86 0
70 -86 0
-72 -86 0
-75 -86 0
-78 -86 0
85 -86 0
22 23 26 29 32 35 -70 72 75 78 -85 86 0
-22 -88 0
-23 -88 0
-26 -88 0
-29 -88 0
-32 -88 0
-35 -88 0
70 -88 0
-72 -88 0
-75 -88 0
-78 -88 0
85 -88 0
87 -88 0
22 23 26 29 32 35 -70 72 75 78 -85 -87 88 0
-22 -89 0
-23 -89 0
-26 -89 0
-29 -89 0
-32 -89 0
-35 -89 0
70 -89 0
-72 -89 0
-75 -89 0
-78 -89 0
85 -89 0
-87 -89 0
22 23 26 29 32 35 -70 72 75 78 -85 87 89 0
-32 -90 0
-35 -90 0
-72 -90 0
-75 -90 0
-78 -90 0
-23 -90 0
-26 -90 0
-29 -90 0
-22 -90 0
70 -90 0
85 -90 0
22 23 26 29 32 35 -70 72 75 78 -85 90 0
-22 -91 0
-23 -91 0
-26 -91 0
-29 -91 0
-32 -91 0
-35 -91 0
70 -91 0
-72 -91 0
-75 -91 0
-78 -91 0
-85 -91 0
22 23 26 29 32 35 -70 72 75 78 85 91 0
-32 -92 0
-35 -92 0
-23 -92 0
-26 -92 0
-29 -92 0
-22 -92 0
70 -92 0
22 23 26 29 32 35 -70 92 0
-22 -93 0
-23 -93 0
-26 -93 0
-29 -93 0
-32 -93 0
-35 -93 0
-70 -93 0
22 23 26 29 32 35 70 93 0
-22 -95 0
-23 -95 0
-26 -95 0
-29 -95 0
-32 -95 0
-35 -95 0
-70 -95 0
94 -95 0
22 23 26 29 32 35 70 -94 95 0
-22 -97 0
-23 -97 0
-26 -97 0
-29 -97 0
-32 -97 0
-35 -97 0
-70 -97 0
94 -97 0
96 -97 0
22 23 26 29 32 35 70 -94 -96 97 0
-22 -98 0
-23 -98 0
-26 -98 0
-29 -98 0
-32 -98 0
-35 -98 0
-70 -98 0
94 -98 0
-96 -98 0
22 23 26 29 32 35 70 -94 96 98 0
-32 -99 0
-35 -99 0
-70 -99 0
-23 -99 0
-26 -99 0
-29 -99 0
-22 -99 0
94 -99 0
22 23 26 29 32 35 70 -94 99 0
-22 -100 0
-23 -100 0
-26 -100 0
-29 -100 0
-32 -100 0
-35 -100 0
-70 -100 0
-94 -100 0
22 23 26 29 32 35 70 94 100 0
101 0
103 -118 0
-103 118 0
-1 -118 -119 0
1 118 -119 0
-1 118 119 0
1 -118 119 0
-119 0
106 -121 0
-106 121 0
-1 122 0
-121 122 0
1 121 -122 0
-2 -122 -123 0
2 122 -123 0
-2 122 123 0
2 -122 123 0
-123 0
104 -124 0
-104 124 0
-3 -124 -125 0
3 124 -125 0
-3 124 125 0
3 -124 125 0
-125 0
110 -127 0
-110 127 0
-3 128 0
-127 128 0
3 127 -128 0
2 -131 0
128 -131 0
-2 -128 131 0
-6 -131 -132 0
6 131 -132 0
-6 131 132 0
6 -131 132 0
-132 0
2 -129 133 0
2 129 -133 0
-2 -128 133 0
-2 128 -133 0
105 -134 0
-105 134 0
-7 -134 -135 0
7 134 -135 0
-7 134 135 0
7 -134 135 0
-135 0
114 -137 0
-114 137 0
-7 138 0
-137 138 0
7 137 -138 0
6 -141 0
138 -141 0
-6 -138 141 0
-10 -141 -142 0
10 141 -142 0
-10 141 142 0
10 -141 142 0
-142 0
6 -140 143 0
6 140 -143 0
-6 -138 143 0
-6 138 -143 0
108 -144 0
-108 144 0
-11 -144 -145 0
11 144 -145 0
-11 144 145 0
11 -144 145 0
-145 0
111 -147 0
-111 147 0
-11 148 0
-147 148 0
11 147 -148 0
10 -151 0
148 -151 0
-10 -148 151 0
-14 -151 -152 0
14 151 -152 0
-14 151 152 0
14 -151 152 0
-152 0
10 -149 153 0
10 149 -153 0
-10 -148 153 0
-10 148 -153 0
109 -154 0
-109 154 0
-15 -154 -155 0
15 154 -155 0
-15 154 155 0
15 -154 155 0
-155 0
115 -157 0
-115 157 0
-15 158 0
-157 158 0
15 157 -158 0
14 -161 0
158 -161 0
-14 -158 161 0
-18 -161 -162 0
18 161 -162 0
-18 161 162 0
18 -161 162 0
-162 0
14 -159 163 0
14 159 -163 0
-14 -158 163 0
-14 158 -163 0
113 -164 0
-113 164 0
-19 -164 -165 0
19 164 -165 0
-19 164 165 0
19 -164 165 0
-165 0
116 -167 0
-116 167 0
-19 168 0
-167 168 0
19 167 -168 0
18 -169 171 0
18 169 -171 0
-18 -168 171 0
-18 168 -171 0
168 -172 0
18 -172 0
-18 -168 172 0
-22 -172 -173 0
22 172 -173 0
-22 172 173 0
22 -172 173 0
-173 0
-107 174 0
107 -174 0
-107 -175 0
107 -175 0
107 176 0
-175 176 0
-107 175 -176 0
-23 -176 -177 0
23 176 -177 0
-23 176 177 0
23 -176 177 0
-177 0
-117 178 0
117 -178 0
-117 -179 0
117 -179 0
117 180 0
-179 180 0
-117 179 -180 0
-26 -180 -181 0
26 180 -181 0
-26 180 181 0
26 -180 181 0
-181 0
-102 182 0
102 -182 0
-102 -183 0
102 -183 0
102 184 0
-183 184 0
-102 183 -184 0
-29 -184 -185 0
29 184 -185 0
-29 184 185 0
29 -184 185 0
-185 0
-112 186 0
112 -186 0
-112 -187 0
112 -187 0
112 188 0
-187 188 0
-112 187 -188 0
-32 -188 -189 0
32 188 -189 0
-32 188 189 0
32 -188 189 0
-189 0
-115 190 0
115 -190 0
-115 -191 0
115 -191 0
115 192 0
-191 192 0
-115 191 -192 0
-35 -192 -193 0
35 192 -193 0
-35 192 193 0
35 -192 193 0
-193 0
-109 194 0
109 -194 0
-109 -195 0
109 -195 0
109 196 0
-195 196 0
-109 195 -196 0
-37 -196 -197 0
37 196 -197 0
-37 196 197 0
37 -196 197 0
-197 0
-113 198 0
113 -198 0
-113 -199 0
113 -199 0
113 200 0
-199 200 0
-113 199 -200 0
-40 -200 -201 0
40 200 -201 0
-40 200 201 0
40 -200 201 0
-201 0
-116 202 0
116 -202 0
-116 -203 0
116 -203 0
116 204 0
-203 204 0
-116 203 -204 0
-42 -204 -205 0
42 204 -205 0
-42 204 205 0
42 -204 205 0
-205 0
-106 206 0
106 -206 0
-106 -207 0
106 -207 0
106 208 0
-207 208 0
-106 207 -208 0
-45 -208 -209 0
45 208 -209 0
-45 208 209 0
45 -208 209 0
-209 0
-103 210 0
103 -210 0
-103 -211 0
103 -211 0
103 212 0
-211 212 0
-103 211 -212 0
-47 -212 -213 0
47 212 -213 0
-47 212 213 0
47 -212 213 0
-213 0
-110 214 0
110 -214 0
-110 -215 0
110 -215 0
110 216 0
-215 216 0
-110 215 -216 0
-54 -216 -217 0
54 216 -217 0
-54 216 217 0
54 -216 217 0
-217 0
-104 218 0
104 -218 0
-104 -219 0
104 -219 0
104 220 0
-219 220 0
-104 219 -220 0
-56 -220 -221 0
56 220 -221 0
-56 220 221 0
56 -220 221 0
-221 0
-59 -208 -222 0
59 208 -222 0
-59 208 222 0
59 -208 222 0
-222 0
-61 -212 -223 0
61 212 -223 0
-61 212 223 0
61 -212 223 0
-223 0
-111 224 0
111 -224 0
-111 -225 0
111 -225 0
111 226 0
-225 226 0
-111 225 -226 0
-70 -226 -227 0
70 226 -227 0
-70 226 227 0
70 -226 227 0
-227 0
-108 228 0
108 -228 0
-108 -229 0
108 -229 0
108 230 0
-229 230 0
-108 229 -230 0
-72 -230 -231 0
72 230 -231 0
-72 230 231 0
72 -230 231 0
-231 0
-75 -220 -232 0
75 220 -232 0
-75 220 232 0
75 -220 232 0
-232 0
-78 -208 -233 0
78 208 -233 0
-78 208 233 0
78 -208 233 0
-233 0
-80 -212 -234 0
80 212 -234 0
-80 212 234 0
80 -212 234 0
-234 0
-114 235 0
114 -235 0
-114 -236 0
114 -236 0
114 237 0
-236 237 0
-114 236 -237 0
-85 -237 -238 0
85 237 -238 0
-85 237 238 0
85 -237 238 0
-238 0
-105 239 0
105 -239 0
-105 -240 0
105 -240 0
105 241 0
-240 241 0
-105 240 -241 0
-87 -241 -242 0
87 241 -242 0
-87 241 242 0
87 -241 242 0
-242 0
-94 -200 -243 0
94 200 -243 0
-94 200 243 0
94 -200 243 0
-243 0
-96 -204 -244 0
96 204 -244 0
-96 204 244 0
96 -204 244 0
-244 0
49 51 63 65 67 76 82 89 91 98 100 0
-245 -247 -249 0
245 247 -249 0
-245 247 249 0
245 -247 249 0
-246 -248 -250 0
246 248 -250 0
-246 248 250 0
246 -248 250 0
-249 -251 0
-250 -251 0
249 250 251 0
-101 251 0
101 -251 0
c __CPROVER_malloc_is_new_array#1 FALSE
c check::$tmp::tmp_if_expr$1!0@1#1 120
c goto_symex::\guard#1 1
c check::$tmp::tmp_if_expr$1!0@1#2 TRUE
c check::$tmp::tmp_if_expr$1!0@1#3 120
c check::$tmp::tmp_if_expr$1!0@1#4 121
c check::$tmp::tmp_if_expr$1!0@1#5 2
c check::$tmp::tmp_if_expr$3!0@1#1 130
c check::$tmp::tmp_if_expr$2!0@1#1 126
c goto_symex::\guard#2 3
c check::$tmp::tmp_if_expr$2!0@1#2 TRUE
c check::$tmp::tmp_if_expr$2!0@1#3 126
c check::$tmp::tmp_if_expr$2!0@1#4 127
c check::$tmp::tmp_if_expr$2!0@1#5 128
c check::$tmp::tmp_if_expr$3!0@1#2 128
c check::$tmp::tmp_if_expr$2!0@1#0 129
c check::$tmp::tmp_if_expr$2!0@1#6 129
c check::$tmp::tmp_if_expr$3!0@1#3 130
c check::$tmp::tmp_if_expr$3!0@1#4 FALSE
c check::$tmp::tmp_if_expr$3!0@1#5 6
c check::$tmp::tmp_if_expr$2!0@1#7 133
c check::$tmp::tmp_if_expr$5!0@1#1 139
c check::$tmp::tmp_if_expr$4!0@1#1 136
c goto_symex::\guard#3 7
c check::$tmp::tmp_if_expr$4!0@1#2 TRUE
c check::$tmp::tmp_if_expr$4!0@1#3 136
c check::$tmp::tmp_if_expr$4!0@1#4 137
c check::$tmp::tmp_if_expr$4!0@1#5 138
c check::$tmp::tmp_if_expr$5!0@1#2 138
c check::$tmp::tmp_if_expr$5!0@1#3 139
c check::$tmp::tmp_if_expr$4!0@1#0 140
c check::$tmp::tmp_if_expr$4!0@1#6 140
c check::$tmp::tmp_if_expr$5!0@1#4 FALSE
c check::$tmp::tmp_if_expr$5!0@1#5 10
c check::$tmp::tmp_if_expr$4!0@1#7 143
c check::$tmp::tmp_if_expr$7!0@1#1 150
c check::$tmp::tmp_if_expr$6!0@1#1 146
c goto_symex::\guard#4 11
c check::$tmp::tmp_if_expr$6!0@1#2 TRUE
c check::$tmp::tmp_if_expr$6!0@1#3 146
c check::$tmp::tmp_if_expr$6!0@1#4 147
c check::$tmp::tmp_if_expr$6!0@1#5 148
c check::$tmp::tmp_if_expr$7!0@1#2 148
c check::$tmp::tmp_if_expr$6!0@1#0 149
c check::$tmp::tmp_if_expr$6!0@1#6 149
c check::$tmp::tmp_if_expr$7!0@1#3 150
c check::$tmp::tmp_if_expr$7!0@1#4 FALSE
c check::$tmp::tmp_if_expr$7!0@1#5 14
c check::$tmp::tmp_if_expr$6!0@1#7 153
c check::$tmp::tmp_if_expr$9!0@1#1 160
c check::$tmp::tmp_if_expr$8!0@1#1 156
c goto_symex::\guard#5 15
c check::$tmp::tmp_if_expr$8!0@1#2 TRUE
c check::$tmp::tmp_if_expr$8!0@1#3 156
c check::$tmp::tmp_if_expr$8!0@1#4 157
c check::$tmp::tmp_if_expr$8!0@1#5 158
c check::$tmp::tmp_if_expr$9!0@1#2 158
c check::$tmp::tmp_if_expr$8!0@1#0 159
c check::$tmp::tmp_if_expr$8!0@1#6 159
c check::$tmp::tmp_if_expr$9!0@1#3 160
c check::$tmp::tmp_if_expr$9!0@1#4 FALSE
c check::$tmp::tmp_if_expr$9!0@1#5 18
c check::$tmp::tmp_if_expr$8!0@1#7 163
c check::$tmp::tmp_if_expr$11!0@1#1 170
c check::$tmp::tmp_if_expr$10!0@1#1 166
c goto_symex::\guard#6 19
c check::$tmp::tmp_if_expr$10!0@1#2 TRUE
c check::$tmp::tmp_if_expr$10!0@1#3 166
c check::$tmp::tmp_if_expr$10!0@1#4 167
c check::$tmp::tmp_if_expr$10!0@1#5 168
c check::$tmp::tmp_if_expr$11!0@1#2 168
c check::$tmp::tmp_if_expr$10!0@1#0 169
c check::$tmp::tmp_if_expr$10!0@1#6 169
c check::$tmp::tmp_if_expr$11!0@1#3 170
c check::$tmp::tmp_if_expr$11!0@1#4 FALSE
c check::$tmp::tmp_if_expr$10!0@1#7 171
c check::$tmp::tmp_if_expr$11!0@1#5 22
c goto_symex::\guard#7 23
c goto_symex::\guard#8 26
c goto_symex::\guard#9 29
c goto_symex::\guard#10 32
c goto_symex::\guard#11 35
c goto_symex::\guard#12 37
c goto_symex::\guard#13 40
c goto_symex::\guard#14 42
c goto_symex::\guard#15 45
c goto_symex::\guard#16 47
c goto_symex::\guard#17 54
c goto_symex::\guard#18 56
c goto_symex::\guard#19 59
c goto_symex::\guard#20 61
c goto_symex::\guard#21 70
c goto_symex::\guard#22 72
c goto_symex::\guard#23 75
c goto_symex::\guard#24 78
c goto_symex::\guard#25 80
c goto_symex::\guard#26 85
c goto_symex::\guard#27 87
c goto_symex::\guard#28 94
c goto_symex::\guard#29 96
c __CPROVER_thread_id!0#1 FALSE FALSE FALSE FALSE FALSE FALSE FALSE FALSE FALSE FALSE FALSE FALSE FALSE FALSE FALSE FALSE FALSE FALSE FALSE FALSE FALSE FALSE FALSE FALSE FALSE FALSE FALSE FALSE FALSE FALSE FALSE FALSE FALSE FALSE FALSE FALSE FALSE FALSE FALSE FALSE FALSE FALSE FALSE FALSE FALSE FALSE FALSE FALSE FALSE FALSE FALSE FALSE FALSE FALSE FALSE FALSE FALSE FALSE FALSE FALSE FALSE FALSE FALSE FALSE
c __CPROVER_rounding_mode!0#1 FALSE FALSE FALSE FALSE FALSE FALSE FALSE FALSE FALSE FALSE FALSE FALSE FALSE FALSE FALSE FALSE FALSE FALSE FALSE FALSE FALSE FALSE FALSE FALSE FALSE FALSE FALSE FALSE FALSE FALSE FALSE FALSE
c __CPROVER_pipe_count#1 FALSE FALSE FALSE FALSE FALSE FALSE FALSE FALSE FALSE FALSE FALSE FALSE FALSE FALSE FALSE FALSE FALSE FALSE FALSE FALSE FALSE FALSE FALSE FALSE FALSE FALSE FALSE FALSE FALSE FALSE FALSE FALSE
c __CPROVER_deallocated#1 FALSE FALSE FALSE FALSE FALSE FALSE FALSE FALSE FALSE FALSE FALSE FALSE FALSE FALSE FALSE FALSE FALSE FALSE FALSE FALSE FALSE FALSE FALSE FALSE FALSE FALSE FALSE FALSE FALSE FALSE FALSE FALSE FALSE FALSE FALSE FALSE FALSE FALSE FALSE FALSE FALSE FALSE FALSE FALSE FALSE FALSE FALSE FALSE FALSE FALSE FALSE FALSE FALSE FALSE FALSE FALSE FALSE FALSE FALSE FALSE FALSE FALSE FALSE FALSE
c __CPROVER_dead_object#1 FALSE FALSE FALSE FALSE FALSE FALSE FALSE FALSE FALSE FALSE FALSE FALSE FALSE FALSE FALSE FALSE FALSE FALSE FALSE FALSE FALSE FALSE FALSE FALSE FALSE FALSE FALSE FALSE FALSE FALSE FALSE FALSE FALSE FALSE FALSE FALSE FALSE FALSE FALSE FALSE FALSE FALSE FALSE FALSE FALSE FALSE FALSE FALSE FALSE FALSE FALSE FALSE FALSE FALSE FALSE FALSE FALSE FALSE FALSE FALSE FALSE FALSE FALSE FALSE
c __CPROVER_next_thread_id#1 FALSE FALSE FALSE FALSE FALSE FALSE FALSE FALSE FALSE FALSE FALSE FALSE FALSE FALSE FALSE FALSE FALSE FALSE FALSE FALSE FALSE FALSE FALSE FALSE FALSE FALSE FALSE FALSE FALSE FALSE FALSE FALSE FALSE FALSE FALSE FALSE FALSE FALSE FALSE FALSE FALSE FALSE FALSE FALSE FALSE FALSE FALSE FALSE FALSE FALSE FALSE FALSE FALSE FALSE FALSE FALSE FALSE FALSE FALSE FALSE FALSE FALSE FALSE FALSE
c __CPROVER_malloc_object#1 FALSE FALSE FALSE FALSE FALSE FALSE FALSE FALSE FALSE FALSE FALSE FALSE FALSE FALSE FALSE FALSE FALSE FALSE FALSE FALSE FALSE FALSE FALSE FALSE FALSE FALSE FALSE FALSE FALSE FALSE FALSE FALSE FALSE FALSE FALSE FALSE FALSE FALSE FALSE FALSE FALSE FALSE FALSE FALSE FALSE FALSE FALSE FALSE FALSE FALSE FALSE FALSE FALSE FALSE FALSE FALSE FALSE FALSE FALSE FALSE FALSE FALSE FALSE FALSE
c check::1::x!0@1#1 102 103 104 105 106 107 108 109 110 111 112 113 114 115 116 117
c __CPROVER_malloc_size#1 FALSE FALSE FALSE FALSE FALSE FALSE FALSE FALSE FALSE FALSE FALSE FALSE FALSE FALSE FALSE FALSE FALSE FALSE FALSE FALSE FALSE FALSE FALSE FALSE FALSE FALSE FALSE FALSE FALSE FALSE FALSE FALSE FALSE FALSE FALSE FALSE FALSE FALSE FALSE FALSE FALSE FALSE FALSE FALSE FALSE FALSE FALSE FALSE FALSE FALSE FALSE FALSE FALSE FALSE FALSE FALSE FALSE FALSE FALSE FALSE FALSE FALSE FALSE FALSE
c __CPROVER_memory_leak#1 FALSE FALSE FALSE FALSE FALSE FALSE FALSE FALSE FALSE FALSE FALSE FALSE FALSE FALSE FALSE FALSE FALSE FALSE FALSE FALSE FALSE FALSE FALSE FALSE FALSE FALSE FALSE FALSE FALSE FALSE FALSE FALSE FALSE FALSE FALSE FALSE FALSE FALSE FALSE FALSE FALSE FALSE FALSE FALSE FALSE FALSE FALSE FALSE FALSE FALSE FALSE FALSE FALSE FALSE FALSE FALSE FALSE FALSE FALSE FALSE FALSE FALSE FALSE FALSE
